g3 1 1 0	# problem unknown
 40 23 1 0 0 	# vars, constraints, objectives, ranges, eqns
 10 0 0 0 0 0	# nonlinear constrs, objs; ccons: lin, nonlin, nd, nzlb
 0 0	# network constraints: nonlinear, linear
 10 0 0 	# nonlinear vars in constraints, objectives, both
 0 0 0 1	# linear network variables; functions; arith, flags
 0 30 0 0 0 	# discrete variables: binary, integer, nonlinear (b,c,o)
 380 30 	# nonzeros in Jacobian, obj. gradient
 0 0	# max name lengths: constraints, variables
 0 0 0 0 0	# common exprs: b,c,o,c1,o1
C0
o16
o5
v0
n2
C1
o16
o5
v1
n2
C2
o16
o5
v2
n2
C3
o16
o5
v3
n2
C4
o16
o5
v4
n2
C5
o16
o5
v5
n2
C6
o16
o5
v6
n2
C7
o16
o5
v7
n2
C8
o16
o5
v8
n2
C9
o16
o5
v9
n2
C10
n0
C11
n0
C12
n0
C13
n0
C14
n0
C15
n0
C16
n0
C17
n0
C18
n0
C19
n0
C20
n0
C21
n0
C22
n0
O0 0
n-6600
x0
r
1 0
1 0
1 0
1 0
1 0
1 0
1 0
1 0
1 0
1 0
1 13
1 11
1 6
2 120
2 240
2 360
2 480
2 600
2 720
2 840
2 960
2 1080
2 1200
b
2 0
2 0
2 0
2 0
2 0
2 0
2 0
2 0
2 0
2 0
2 0
2 0
2 0
2 0
2 0
2 0
2 0
2 0
2 0
2 0
2 0
2 0
2 0
2 0
2 0
2 0
2 0
2 0
2 0
2 0
2 0
2 0
2 0
2 0
2 0
2 0
2 0
2 0
2 0
2 0
k39
2
4
6
8
10
12
14
16
18
20
41
62
83
102
121
140
157
174
191
206
221
236
249
262
275
286
297
308
317
326
335
342
349
356
361
366
371
374
377
J0 4
0 0
10 243.35999999999999
11 135.7225
12 332.3329
J1 7
1 0
10 243.35999999999999
11 135.7225
12 332.3329
13 243.35999999999999
14 135.7225
15 332.3329
J2 10
2 0
10 243.35999999999999
11 135.7225
12 332.3329
13 243.35999999999999
14 135.7225
15 332.3329
16 243.35999999999999
17 135.7225
18 332.3329
J3 13
3 0
10 243.35999999999999
11 135.7225
12 332.3329
13 243.35999999999999
14 135.7225
15 332.3329
16 243.35999999999999
17 135.7225
18 332.3329
19 243.35999999999999
20 135.7225
21 332.3329
J4 16
4 0
10 243.35999999999999
11 135.7225
12 332.3329
13 243.35999999999999
14 135.7225
15 332.3329
16 243.35999999999999
17 135.7225
18 332.3329
19 243.35999999999999
20 135.7225
21 332.3329
22 243.35999999999999
23 135.7225
24 332.3329
J5 19
5 0
10 243.35999999999999
11 135.7225
12 332.3329
13 243.35999999999999
14 135.7225
15 332.3329
16 243.35999999999999
17 135.7225
18 332.3329
19 243.35999999999999
20 135.7225
21 332.3329
22 243.35999999999999
23 135.7225
24 332.3329
25 243.35999999999999
26 135.7225
27 332.3329
J6 22
6 0
10 243.35999999999999
11 135.7225
12 332.3329
13 243.35999999999999
14 135.7225
15 332.3329
16 243.35999999999999
17 135.7225
18 332.3329
19 243.35999999999999
20 135.7225
21 332.3329
22 243.35999999999999
23 135.7225
24 332.3329
25 243.35999999999999
26 135.7225
27 332.3329
28 243.35999999999999
29 135.7225
30 332.3329
J7 25
7 0
10 243.35999999999999
11 135.7225
12 332.3329
13 243.35999999999999
14 135.7225
15 332.3329
16 243.35999999999999
17 135.7225
18 332.3329
19 243.35999999999999
20 135.7225
21 332.3329
22 243.35999999999999
23 135.7225
24 332.3329
25 243.35999999999999
26 135.7225
27 332.3329
28 243.35999999999999
29 135.7225
30 332.3329
31 243.35999999999999
32 135.7225
33 332.3329
J8 28
8 0
10 243.35999999999999
11 135.7225
12 332.3329
13 243.35999999999999
14 135.7225
15 332.3329
16 243.35999999999999
17 135.7225
18 332.3329
19 243.35999999999999
20 135.7225
21 332.3329
22 243.35999999999999
23 135.7225
24 332.3329
25 243.35999999999999
26 135.7225
27 332.3329
28 243.35999999999999
29 135.7225
30 332.3329
31 243.35999999999999
32 135.7225
33 332.3329
34 243.35999999999999
35 135.7225
36 332.3329
J9 31
9 0
10 243.35999999999999
11 135.7225
12 332.3329
13 243.35999999999999
14 135.7225
15 332.3329
16 243.35999999999999
17 135.7225
18 332.3329
19 243.35999999999999
20 135.7225
21 332.3329
22 243.35999999999999
23 135.7225
24 332.3329
25 243.35999999999999
26 135.7225
27 332.3329
28 243.35999999999999
29 135.7225
30 332.3329
31 243.35999999999999
32 135.7225
33 332.3329
34 243.35999999999999
35 135.7225
36 332.3329
37 243.35999999999999
38 135.7225
39 332.3329
J10 10
10 1
13 1
16 1
19 1
22 1
25 1
28 1
31 1
34 1
37 1
J11 10
11 1
14 1
17 1
20 1
23 1
26 1
29 1
32 1
35 1
38 1
J12 10
12 1
15 1
18 1
21 1
24 1
27 1
30 1
33 1
36 1
39 1
J13 4
0 -1.2815515655446004
10 36.596
11 44.823
12 56.807
J14 7
1 -1.2815515655446004
10 36.596
11 44.823
12 56.807
13 36.596
14 44.823
15 56.807
J15 10
2 -1.2815515655446004
10 36.596
11 44.823
12 56.807
13 36.596
14 44.823
15 56.807
16 36.596
17 44.823
18 56.807
J16 13
3 -1.2815515655446004
10 36.596
11 44.823
12 56.807
13 36.596
14 44.823
15 56.807
16 36.596
17 44.823
18 56.807
19 36.596
20 44.823
21 56.807
J17 16
4 -1.2815515655446004
10 36.596
11 44.823
12 56.807
13 36.596
14 44.823
15 56.807
16 36.596
17 44.823
18 56.807
19 36.596
20 44.823
21 56.807
22 36.596
23 44.823
24 56.807
J18 19
5 -1.2815515655446004
10 36.596
11 44.823
12 56.807
13 36.596
14 44.823
15 56.807
16 36.596
17 44.823
18 56.807
19 36.596
20 44.823
21 56.807
22 36.596
23 44.823
24 56.807
25 36.596
26 44.823
27 56.807
J19 22
6 -1.2815515655446004
10 36.596
11 44.823
12 56.807
13 36.596
14 44.823
15 56.807
16 36.596
17 44.823
18 56.807
19 36.596
20 44.823
21 56.807
22 36.596
23 44.823
24 56.807
25 36.596
26 44.823
27 56.807
28 36.596
29 44.823
30 56.807
J20 25
7 -1.2815515655446004
10 36.596
11 44.823
12 56.807
13 36.596
14 44.823
15 56.807
16 36.596
17 44.823
18 56.807
19 36.596
20 44.823
21 56.807
22 36.596
23 44.823
24 56.807
25 36.596
26 44.823
27 56.807
28 36.596
29 44.823
30 56.807
31 36.596
32 44.823
33 56.807
J21 28
8 -1.2815515655446004
10 36.596
11 44.823
12 56.807
13 36.596
14 44.823
15 56.807
16 36.596
17 44.823
18 56.807
19 36.596
20 44.823
21 56.807
22 36.596
23 44.823
24 56.807
25 36.596
26 44.823
27 56.807
28 36.596
29 44.823
30 56.807
31 36.596
32 44.823
33 56.807
34 36.596
35 44.823
36 56.807
J22 31
9 -1.2815515655446004
10 36.596
11 44.823
12 56.807
13 36.596
14 44.823
15 56.807
16 36.596
17 44.823
18 56.807
19 36.596
20 44.823
21 56.807
22 36.596
23 44.823
24 56.807
25 36.596
26 44.823
27 56.807
28 36.596
29 44.823
30 56.807
31 36.596
32 44.823
33 56.807
34 36.596
35 44.823
36 56.807
37 36.596
38 44.823
39 56.807
G0 30
10 365.96
11 448.23
12 568.07
13 329.364
14 403.407
15 511.26300000000003
16 292.768
17 358.584
18 454.456
19 256.17199999999997
20 313.761
21 397.649
22 219.57599999999996
23 268.938
24 340.842
25 182.98
26 224.115
27 284.035
28 146.384
29 179.292
30 227.228
31 109.78799999999998
32 134.469
33 170.421
34 73.192
35 89.646
36 113.614
37 36.596
38 44.823
39 56.807
